p cnf 100 20
x 1 4 -6 -9 10 12 16 18 19 21 22 -23 24 -25 27 28 29 32 34 -36 38 -39 -40 42 -43 47 52 -54 -56 61 63 69 70 72 -73 75 -76 78 81 83 -84 86 87 88 89 90 -93 95 -98 0
x 3 4 -7 -15 -16 -17 18 20 -22 23 -24 -28 -29 -31 33 34 -35 36 -39 41 -43 -44 -46 47 -49 -51 -55 -60 61 -64 67 68 70 -71 -74 75 77 -78 -81 82 -83 -87 -88 -89 -90 93 96 98 100 0
x -1 2 -5 -7 -9 10 -12 -13 -21 22 -23 24 -26 28 -29 31 -33 -37 39 42 48 -49 50 51 53 54 -56 57 -58 -60 -61 65 73 -75 78 -79 -80 83 -84 91 93 -94 -96 -99 0
x -5 6 7 8 10 -11 -15 -23 24 25 -26 -27 28 -29 30 31 34 35 36 -38 -41 -47 48 51 55 -56 -57 -61 -63 67 -70 72 -73 74 -75 76 79 -83 84 -85 86 89 91 -93 -96 98 -99 0
x 2 4 5 -6 7 9 12 13 16 18 20 -21 22 23 24 26 28 -29 -30 -31 32 33 -35 -36 -38 -39 41 42 43 44 -45 -47 -52 -55 59 -60 -62 -64 65 -66 -67 72 -74 -75 -76 78 -80 81 86 -87 88 90 91 92 93 94 95 -99 0
x 1 -2 -4 -6 -8 -9 -11 -12 14 -15 -20 21 23 -26 -27 -28 31 -34 -39 -40 42 43 -45 -48 -51 56 57 -58 61 62 63 -64 65 -66 -67 69 71 72 -74 77 -79 80 -83 -84 87 -88 89 91 92 93 -99 100 0
x -1 2 5 -11 -13 -14 -16 -18 20 21 22 24 -25 27 -31 -35 37 -40 -41 44 -46 48 49 51 -53 55 56 57 -60 -61 -63 -69 72 73 -74 75 -77 80 -83 85 86 -90 92 94 -95 -97 -100 0
x -2 -3 -4 7 8 9 10 11 -12 14 15 16 -19 21 -24 -26 27 29 32 35 -36 37 -42 43 47 -48 -50 -52 53 -54 56 -58 60 61 64 -65 -66 -68 -70 71 -74 -76 77 80 83 88 -90 91 -96 99 0
x -1 4 -5 -6 8 9 -10 12 -13 17 -19 21 23 24 -28 -32 -35 -37 -40 44 -46 47 51 -54 -55 -57 59 62 63 64 -65 66 70 72 -74 75 77 -79 -80 -82 86 90 91 93 97 -100 0
x 1 -2 -3 -6 7 -9 -11 -12 14 -15 -17 -18 -19 21 -24 -25 -27 -32 -35 -36 -38 -41 42 -44 -46 51 53 54 56 61 65 66 69 70 71 -72 74 75 -76 -83 85 90 -92 -94 -98 99 0
x -1 4 6 7 8 16 -18 19 21 -22 23 -27 -29 -30 31 -33 34 36 -38 41 42 43 -44 -49 -50 -53 -57 58 59 -60 -62 65 -66 69 -72 -73 -74 75 77 -79 80 -81 84 90 -92 -96 97 0
x 2 -5 -7 12 13 15 -17 21 -23 24 -26 27 -28 -29 30 32 -36 -42 -43 48 -49 50 52 -53 55 -58 -59 -60 61 62 63 -68 -73 -76 -78 80 -85 87 -88 -89 90 96 -98 -99 0
x 1 2 5 -6 8 -11 12 16 -20 23 -24 30 31 35 -37 38 -41 42 -50 51 -53 55 57 60 63 -64 65 -69 70 74 -78 80 -82 -83 84 86 88 90 -93 -95 96 99 0
x 1 5 -10 -11 12 14 -15 -17 18 19 -21 -23 25 27 29 -30 -31 34 36 -39 40 -41 43 44 -47 -48 49 -50 52 53 -54 -57 58 -60 -64 65 66 68 70 72 73 75 76 77 78 -81 -82 85 86 -88 -91 92 95 0
x -2 3 -8 10 -11 12 -13 -15 -16 -17 19 20 22 24 27 28 -31 35 37 -40 -41 47 54 -56 -58 -59 62 -67 -68 -69 -70 74 -75 -76 -77 78 84 -85 86 87 -88 90 91 92 93 -96 -97 100 0
x 2 -4 -5 7 9 11 -12 13 15 16 20 -22 24 -26 27 28 -30 -32 -33 34 -35 -40 -43 44 -45 47 -48 -49 51 -52 -53 55 -56 58 59 60 -63 -64 -67 68 69 71 72 -75 -76 -80 81 -82 -85 -86 -87 -91 -93 -94 -95 97 0
x -3 6 -8 -10 11 14 16 -17 18 -19 22 -23 -24 -25 26 -27 -28 -29 -32 34 -35 -37 38 42 -43 48 49 -53 54 -55 -58 -60 61 -69 70 72 76 -78 -79 -81 -82 -83 84 85 -89 -90 -92 -94 -96 -99 -100 0
x -1 -3 5 6 -7 -9 11 13 15 16 17 -20 -21 22 23 24 -25 -26 -27 32 33 35 -38 -40 -41 -42 48 52 -53 -54 -58 -59 60 62 -64 -65 70 -74 -77 -78 80 -86 -91 -92 -94 95 -96 -98 -99 -100 0
x 2 -3 4 -5 6 -7 8 11 -12 -13 -14 -15 16 17 -19 -20 22 -23 24 25 -26 27 -30 31 -33 -35 -37 38 -40 41 43 -44 50 -51 -54 55 56 -57 58 -60 -62 64 -65 67 69 71 -72 75 -76 -77 -78 -79 -81 82 83 -84 -86 -89 -91 -95 96 -99 100 0
x 1 2 -3 9 10 12 21 23 -24 25 27 -29 31 32 33 34 35 -36 37 -38 -39 41 -43 -44 -46 47 49 -50 -51 52 54 -55 56 57 -58 -59 -61 -62 63 -65 67 69 72 74 -76 -77 -78 79 84 85 88 -91 92 94 99 -100 0
g -40